65
1 0 77
2 0 30
2 1 46
3 0 92
3 1 76
3 2 56
4 0 25
4 1 6
4 2 99
4 3 72
5 0 91
5 1 10
5 2 39
5 3 29
5 4 44
6 0 4
6 1 66
6 2 38
6 3 49
6 4 71
6 5 56
7 0 56
7 1 41
7 2 31
7 3 99
7 4 3
7 5 8
7 6 77
8 0 44
8 1 24
8 2 66
8 3 56
8 4 5
8 5 48
8 6 29
8 7 2
9 0 30
9 1 74
9 2 28
9 3 43
9 4 34
9 5 8
9 6 36
9 7 30
9 8 15
10 0 29
10 1 92
10 2 57
10 3 25
10 4 42
10 5 61
10 6 87
10 7 60
10 8 72
10 9 36
11 0 78
11 1 87
11 2 77
11 3 91
11 4 100
11 5 32
11 6 15
11 7 43
11 8 70
11 9 79
11 10 68
12 0 64
12 1 43
12 2 72
12 3 16
12 4 72
12 5 61
12 6 16
12 7 30
12 8 72
12 9 12
12 10 14
12 11 91
13 0 48
13 1 82
13 2 81
13 3 94
13 4 8
13 5 85
13 6 35
13 7 71
13 8 39
13 9 10
13 10 57
13 11 34
13 12 27
14 0 17
14 1 53
14 2 55
14 3 49
14 4 75
14 5 70
14 6 3
14 7 43
14 8 18
14 9 54
14 10 11
14 11 98
14 12 70
14 13 50
15 0 59
15 1 45
15 2 60
15 3 72
15 4 72
15 5 22
15 6 23
15 7 1
15 8 94
15 9 52
15 10 72
15 11 93
15 12 70
15 13 55
15 14 73
16 0 95
16 1 46
16 2 78
16 3 67
16 4 12
16 5 82
16 6 31
16 7 10
16 8 63
16 9 25
16 10 40
16 11 48
16 12 19
16 13 2
16 14 72
16 15 18
17 0 26
17 1 9
17 2 81
17 3 57
17 4 36
17 5 26
17 6 96
17 7 76
17 8 13
17 9 69
17 10 33
17 11 96
17 12 78
17 13 73
17 14 5
17 15 76
17 16 18
18 0 55
18 1 85
18 2 86
18 3 70
18 4 3
18 5 100
18 6 86
18 7 48
18 8 4
18 9 9
18 10 15
18 11 87
18 12 83
18 13 70
18 14 29
18 15 11
18 16 31
18 17 83
19 0 7
19 1 54
19 2 47
19 3 10
19 4 24
19 5 91
19 6 19
19 7 61
19 8 83
19 9 59
19 10 4
19 11 21
19 12 23
19 13 66
19 14 2
19 15 57
19 16 57
19 17 33
19 18 35
20 0 25
20 1 18
20 2 10
20 3 52
20 4 69
20 5 4
20 6 47
20 7 46
20 8 71
20 9 50
20 10 41
20 11 46
20 12 15
20 13 75
20 14 64
20 15 11
20 16 56
20 17 79
20 18 53
20 19 51
21 0 12
21 1 86
21 2 19
21 3 54
21 4 28
21 5 59
21 6 94
21 7 78
21 8 64
21 9 40
21 10 48
21 11 44
21 12 19
21 13 75
21 14 20
21 15 59
21 16 96
21 17 41
21 18 49
21 19 19
21 20 51
22 0 86
22 1 10
22 2 96
22 3 99
22 4 31
22 5 91
22 6 10
22 7 67
22 8 24
22 9 48
22 10 24
22 11 12
22 12 16
22 13 46
22 14 21
22 15 44
22 16 10
22 17 59
22 18 56
22 19 25
22 20 21
22 21 86
23 0 89
23 1 32
23 2 15
23 3 28
23 4 37
23 5 15
23 6 36
23 7 93
23 8 1
23 9 66
23 10 41
23 11 64
23 12 73
23 13 99
23 14 86
23 15 28
23 16 2
23 17 8
23 18 52
23 19 45
23 20 88
23 21 31
23 22 89
24 0 24
24 1 48
24 2 66
24 3 21
24 4 13
24 5 38
24 6 100
24 7 48
24 8 39
24 9 59
24 10 42
24 11 26
24 12 47
24 13 58
24 14 88
24 15 21
24 16 20
24 17 14
24 18 49
24 19 62
24 20 84
24 21 71
24 22 19
24 23 34
25 0 35
25 1 43
25 2 66
25 3 7
25 4 28
25 5 25
25 6 72
25 7 66
25 8 25
25 9 64
25 10 61
25 11 99
25 12 96
25 13 92
25 14 82
25 15 72
25 16 7
25 17 14
25 18 43
25 19 68
25 20 51
25 21 99
25 22 7
25 23 94
25 24 2
26 0 33
26 1 99
26 2 77
26 3 87
26 4 19
26 5 89
26 6 96
26 7 27
26 8 35
26 9 43
26 10 25
26 11 83
26 12 88
26 13 64
26 14 90
26 15 96
26 16 27
26 17 55
26 18 54
26 19 19
26 20 93
26 21 85
26 22 91
26 23 89
26 24 29
26 25 41
27 0 13
27 1 63
27 2 78
27 3 86
27 4 55
27 5 35
27 6 33
27 7 70
27 8 36
27 9 7
27 10 24
27 11 54
27 12 54
27 13 61
27 14 59
27 15 43
27 16 75
27 17 90
27 18 46
27 19 50
27 20 31
27 21 52
27 22 64
27 23 28
27 24 37
27 25 65
27 26 65
28 0 36
28 1 85
28 2 76
28 3 31
28 4 37
28 5 86
28 6 43
28 7 97
28 8 46
28 9 52
28 10 28
28 11 25
28 12 64
28 13 54
28 14 92
28 15 12
28 16 70
28 17 99
28 18 33
28 19 24
28 20 65
28 21 98
28 22 14
28 23 20
28 24 80
28 25 23
28 26 67
28 27 8
29 0 2
29 1 83
29 2 69
29 3 22
29 4 65
29 5 64
29 6 39
29 7 42
29 8 24
29 9 7
29 10 82
29 11 80
29 12 11
29 13 17
29 14 91
29 15 2
29 16 19
29 17 46
29 18 92
29 19 67
29 20 91
29 21 67
29 22 62
29 23 99
29 24 93
29 25 50
29 26 94
29 27 25
29 28 100
30 0 7
30 1 63
30 2 43
30 3 30
30 4 51
30 5 18
30 6 4
30 7 97
30 8 100
30 9 21
30 10 17
30 11 77
30 12 26
30 13 91
30 14 20
30 15 96
30 16 11
30 17 32
30 18 76
30 19 2
30 20 73
30 21 50
30 22 75
30 23 59
30 24 79
30 25 87
30 26 60
30 27 87
30 28 40
30 29 37
31 0 11
31 1 41
31 2 72
31 3 4
31 4 45
31 5 90
31 6 64
31 7 34
31 8 26
31 9 42
31 10 76
31 11 27
31 12 87
31 13 38
31 14 71
31 15 93
31 16 10
31 17 100
31 18 60
31 19 41
31 20 17
31 21 99
31 22 82
31 23 93
31 24 60
31 25 98
31 26 86
31 27 53
31 28 30
31 29 73
31 30 72
32 0 3
32 1 5
32 2 16
32 3 94
32 4 81
32 5 18
32 6 72
32 7 51
32 8 72
32 9 9
32 10 84
32 11 19
32 12 15
32 13 100
32 14 14
32 15 85
32 16 11
32 17 94
32 18 93
32 19 98
32 20 85
32 21 100
32 22 4
32 23 43
32 24 22
32 25 30
32 26 2
32 27 6
32 28 3
32 29 16
32 30 35
32 31 88
33 0 2
33 1 49
33 2 1
33 3 75
33 4 8
33 5 37
33 6 74
33 7 86
33 8 1
33 9 30
33 10 73
33 11 46
33 12 86
33 13 58
33 14 63
33 15 66
33 16 63
33 17 100
33 18 8
33 19 9
33 20 97
33 21 38
33 22 12
33 23 94
33 24 3
33 25 12
33 26 25
33 27 65
33 28 70
33 29 51
33 30 3
33 31 3
33 32 80
34 0 43
34 1 35
34 2 89
34 3 10
34 4 91
34 5 85
34 6 29
34 7 7
34 8 53
34 9 17
34 10 5
34 11 77
34 12 64
34 13 87
34 14 8
34 15 48
34 16 82
34 17 36
34 18 64
34 19 66
34 20 29
34 21 9
34 22 79
34 23 58
34 24 97
34 25 75
34 26 39
34 27 64
34 28 39
34 29 47
34 30 51
34 31 12
34 32 83
34 33 6
35 0 17
35 1 14
35 2 21
35 3 84
35 4 68
35 5 71
35 6 80
35 7 70
35 8 10
35 9 47
35 10 54
35 11 19
35 12 43
35 13 38
35 14 63
35 15 9
35 16 66
35 17 29
35 18 92
35 19 61
35 20 89
35 21 55
35 22 78
35 23 1
35 24 94
35 25 68
35 26 89
35 27 64
35 28 22
35 29 93
35 30 3
35 31 40
35 32 91
35 33 38
35 34 61
36 0 24
36 1 59
36 2 69
36 3 82
36 4 24
36 5 88
36 6 72
36 7 45
36 8 18
36 9 80
36 10 70
36 11 77
36 12 97
36 13 86
36 14 61
36 15 10
36 16 7
36 17 3
36 18 99
36 19 92
36 20 86
36 21 25
36 22 24
36 23 60
36 24 71
36 25 5
36 26 24
36 27 18
36 28 95
36 29 34
36 30 87
36 31 78
36 32 26
36 33 63
36 34 59
36 35 46
37 0 100
37 1 14
37 2 34
37 3 73
37 4 59
37 5 49
37 6 37
37 7 3
37 8 93
37 9 8
37 10 66
37 11 72
37 12 46
37 13 29
37 14 21
37 15 61
37 16 35
37 17 100
37 18 25
37 19 99
37 20 96
37 21 27
37 22 9
37 23 61
37 24 51
37 25 99
37 26 36
37 27 14
37 28 67
37 29 94
37 30 69
37 31 12
37 32 37
37 33 57
37 34 11
37 35 34
37 36 19
38 0 35
38 1 75
38 2 11
38 3 11
38 4 67
38 5 66
38 6 8
38 7 33
38 8 43
38 9 73
38 10 29
38 11 70
38 12 98
38 13 8
38 14 84
38 15 66
38 16 95
38 17 43
38 18 24
38 19 1
38 20 14
38 21 28
38 22 27
38 23 75
38 24 54
38 25 94
38 26 18
38 27 86
38 28 17
38 29 68
38 30 22
38 31 74
38 32 26
38 33 59
38 34 3
38 35 69
38 36 89
38 37 94
39 0 36
39 1 66
39 2 33
39 3 13
39 4 10
39 5 17
39 6 51
39 7 40
39 8 64
39 9 2
39 10 37
39 11 100
39 12 1
39 13 37
39 14 14
39 15 59
39 16 29
39 17 16
39 18 73
39 19 81
39 20 34
39 21 95
39 22 67
39 23 49
39 24 75
39 25 85
39 26 48
39 27 88
39 28 50
39 29 83
39 30 34
39 31 84
39 32 100
39 33 76
39 34 35
39 35 100
39 36 19
39 37 95
39 38 81
40 0 12
40 1 97
40 2 5
40 3 38
40 4 28
40 5 26
40 6 47
40 7 94
40 8 71
40 9 30
40 10 84
40 11 55
40 12 23
40 13 10
40 14 5
40 15 93
40 16 66
40 17 9
40 18 92
40 19 9
40 20 79
40 21 34
40 22 61
40 23 37
40 24 59
40 25 10
40 26 20
40 27 78
40 28 82
40 29 22
40 30 15
40 31 49
40 32 30
40 33 96
40 34 49
40 35 88
40 36 38
40 37 17
40 38 4
40 39 36
41 0 44
41 1 76
41 2 97
41 3 14
41 4 45
41 5 11
41 6 39
41 7 35
41 8 89
41 9 64
41 10 1
41 11 39
41 12 59
41 13 93
41 14 86
41 15 43
41 16 26
41 17 83
41 18 70
41 19 21
41 20 88
41 21 71
41 22 59
41 23 85
41 24 3
41 25 64
41 26 70
41 27 16
41 28 92
41 29 13
41 30 53
41 31 62
41 32 83
41 33 91
41 34 79
41 35 15
41 36 2
41 37 59
41 38 91
41 39 27
41 40 40
42 0 44
42 1 77
42 2 29
42 3 50
42 4 52
42 5 14
42 6 55
42 7 64
42 8 85
42 9 5
42 10 97
42 11 19
42 12 44
42 13 80
42 14 38
42 15 36
42 16 37
42 17 61
42 18 37
42 19 98
42 20 16
42 21 4
42 22 65
42 23 13
42 24 16
42 25 60
42 26 16
42 27 64
42 28 76
42 29 18
42 30 39
42 31 79
42 32 55
42 33 34
42 34 73
42 35 66
42 36 75
42 37 60
42 38 70
42 39 14
42 40 69
42 41 100
43 0 50
43 1 36
43 2 90
43 3 87
43 4 9
43 5 18
43 6 26
43 7 56
43 8 85
43 9 97
43 10 31
43 11 26
43 12 57
43 13 64
43 14 53
43 15 59
43 16 10
43 17 8
43 18 23
43 19 31
43 20 18
43 21 99
43 22 45
43 23 28
43 24 8
43 25 1
43 26 97
43 27 90
43 28 23
43 29 70
43 30 18
43 31 17
43 32 79
43 33 54
43 34 66
43 35 41
43 36 97
43 37 18
43 38 55
43 39 26
43 40 60
43 41 56
43 42 10
44 0 32
44 1 3
44 2 69
44 3 1
44 4 80
44 5 62
44 6 7
44 7 38
44 8 84
44 9 24
44 10 12
44 11 50
44 12 43
44 13 58
44 14 17
44 15 68
44 16 12
44 17 22
44 18 74
44 19 85
44 20 98
44 21 77
44 22 31
44 23 80
44 24 39
44 25 38
44 26 67
44 27 5
44 28 67
44 29 66
44 30 58
44 31 88
44 32 71
44 33 68
44 34 48
44 35 100
44 36 98
44 37 53
44 38 26
44 39 82
44 40 68
44 41 77
44 42 46
44 43 29
45 0 83
45 1 66
45 2 38
45 3 93
45 4 66
45 5 96
45 6 99
45 7 33
45 8 51
45 9 71
45 10 58
45 11 29
45 12 9
45 13 45
45 14 56
45 15 49
45 16 93
45 17 52
45 18 91
45 19 25
45 20 23
45 21 52
45 22 1
45 23 73
45 24 55
45 25 16
45 26 7
45 27 75
45 28 96
45 29 95
45 30 28
45 31 9
45 32 67
45 33 47
45 34 41
45 35 75
45 36 17
45 37 28
45 38 44
45 39 76
45 40 47
45 41 64
45 42 50
45 43 41
45 44 1
46 0 48
46 1 26
46 2 1
46 3 22
46 4 52
46 5 42
46 6 49
46 7 83
46 8 35
46 9 1
46 10 60
46 11 44
46 12 84
46 13 61
46 14 39
46 15 1
46 16 31
46 17 82
46 18 20
46 19 15
46 20 15
46 21 45
46 22 51
46 23 41
46 24 3
46 25 27
46 26 19
46 27 2
46 28 76
46 29 39
46 30 18
46 31 74
46 32 37
46 33 54
46 34 46
46 35 72
46 36 26
46 37 85
46 38 94
46 39 56
46 40 14
46 41 80
46 42 67
46 43 5
46 44 23
46 45 61
47 0 39
47 1 18
47 2 20
47 3 13
47 4 43
47 5 38
47 6 37
47 7 100
47 8 36
47 9 19
47 10 44
47 11 69
47 12 1
47 13 77
47 14 81
47 15 60
47 16 72
47 17 91
47 18 1
47 19 48
47 20 92
47 21 48
47 22 3
47 23 70
47 24 41
47 25 48
47 26 47
47 27 24
47 28 99
47 29 16
47 30 78
47 31 29
47 32 21
47 33 83
47 34 15
47 35 3
47 36 44
47 37 32
47 38 62
47 39 82
47 40 64
47 41 27
47 42 52
47 43 92
47 44 32
47 45 62
47 46 53
48 0 46
48 1 69
48 2 7
48 3 69
48 4 34
48 5 1
48 6 35
48 7 17
48 8 20
48 9 61
48 10 54
48 11 91
48 12 60
48 13 8
48 14 78
48 15 11
48 16 31
48 17 55
48 18 18
48 19 31
48 20 97
48 21 18
48 22 69
48 23 69
48 24 80
48 25 26
48 26 28
48 27 50
48 28 2
48 29 37
48 30 69
48 31 3
48 32 17
48 33 68
48 34 58
48 35 49
48 36 52
48 37 36
48 38 86
48 39 52
48 40 13
48 41 52
48 42 49
48 43 45
48 44 50
48 45 26
48 46 12
48 47 41
49 0 62
49 1 74
49 2 23
49 3 82
49 4 99
49 5 31
49 6 82
49 7 7
49 8 87
49 9 13
49 10 58
49 11 22
49 12 88
49 13 94
49 14 23
49 15 21
49 16 70
49 17 62
49 18 57
49 19 71
49 20 40
49 21 98
49 22 16
49 23 77
49 24 80
49 25 81
49 26 81
49 27 87
49 28 78
49 29 13
49 30 43
49 31 87
49 32 44
49 33 18
49 34 70
49 35 24
49 36 57
49 37 54
49 38 62
49 39 30
49 40 94
49 41 55
49 42 22
49 43 54
49 44 5
49 45 76
49 46 51
49 47 14
49 48 68
50 0 21
50 1 80
50 2 29
50 3 29
50 4 68
50 5 88
50 6 96
50 7 93
50 8 27
50 9 59
50 10 20
50 11 45
50 12 91
50 13 99
50 14 9
50 15 8
50 16 70
50 17 86
50 18 95
50 19 59
50 20 13
50 21 46
50 22 45
50 23 75
50 24 63
50 25 82
50 26 72
50 27 69
50 28 92
50 29 76
50 30 51
50 31 36
50 32 28
50 33 57
50 34 15
50 35 35
50 36 49
50 37 8
50 38 78
50 39 54
50 40 17
50 41 45
50 42 6
50 43 56
50 44 89
50 45 94
50 46 44
50 47 91
50 48 98
50 49 52
51 0 55
51 1 17
51 2 23
51 3 7
51 4 48
51 5 82
51 6 67
51 7 48
51 8 86
51 9 47
51 10 27
51 11 2
51 12 1
51 13 47
51 14 22
51 15 64
51 16 68
51 17 43
51 18 3
51 19 15
51 20 6
51 21 87
51 22 72
51 23 44
51 24 14
51 25 11
51 26 83
51 27 22
51 28 52
51 29 25
51 30 100
51 31 89
51 32 30
51 33 65
51 34 29
51 35 44
51 36 67
51 37 36
51 38 61
51 39 68
51 40 32
51 41 46
51 42 81
51 43 11
51 44 74
51 45 14
51 46 41
51 47 16
51 48 8
51 49 5
51 50 95
52 0 68
52 1 11
52 2 30
52 3 43
52 4 94
52 5 53
52 6 98
52 7 35
52 8 48
52 9 53
52 10 28
52 11 37
52 12 49
52 13 46
52 14 44
52 15 51
52 16 76
52 17 99
52 18 14
52 19 40
52 20 19
52 21 6
52 22 6
52 23 13
52 24 48
52 25 62
52 26 80
52 27 58
52 28 50
52 29 80
52 30 26
52 31 33
52 32 42
52 33 19
52 34 22
52 35 53
52 36 61
52 37 18
52 38 80
52 39 35
52 40 97
52 41 70
52 42 91
52 43 80
52 44 7
52 45 77
52 46 96
52 47 19
52 48 29
52 49 56
52 50 41
52 51 43
53 0 99
53 1 11
53 2 89
53 3 80
53 4 16
53 5 78
53 6 11
53 7 26
53 8 26
53 9 95
53 10 57
53 11 7
53 12 13
53 13 86
53 14 99
53 15 41
53 16 23
53 17 30
53 18 90
53 19 40
53 20 47
53 21 69
53 22 75
53 23 47
53 24 50
53 25 80
53 26 53
53 27 19
53 28 31
53 29 100
53 30 82
53 31 90
53 32 17
53 33 95
53 34 70
53 35 77
53 36 64
53 37 98
53 38 81
53 39 15
53 40 7
53 41 69
53 42 83
53 43 31
53 44 55
53 45 43
53 46 78
53 47 97
53 48 64
53 49 75
53 50 19
53 51 19
53 52 15
54 0 97
54 1 95
54 2 46
54 3 70
54 4 39
54 5 28
54 6 28
54 7 95
54 8 89
54 9 34
54 10 27
54 11 80
54 12 92
54 13 27
54 14 76
54 15 79
54 16 4
54 17 72
54 18 54
54 19 58
54 20 63
54 21 16
54 22 83
54 23 23
54 24 33
54 25 54
54 26 6
54 27 65
54 28 45
54 29 5
54 30 86
54 31 56
54 32 27
54 33 16
54 34 15
54 35 51
54 36 3
54 37 4
54 38 60
54 39 19
54 40 14
54 41 10
54 42 64
54 43 90
54 44 62
54 45 33
54 46 73
54 47 76
54 48 20
54 49 55
54 50 73
54 51 32
54 52 25
54 53 87
55 0 46
55 1 50
55 2 55
55 3 86
55 4 89
55 5 96
55 6 78
55 7 28
55 8 49
55 9 42
55 10 96
55 11 41
55 12 60
55 13 62
55 14 31
55 15 30
55 16 3
55 17 69
55 18 39
55 19 38
55 20 17
55 21 30
55 22 34
55 23 45
55 24 22
55 25 87
55 26 55
55 27 85
55 28 42
55 29 64
55 30 31
55 31 31
55 32 49
55 33 37
55 34 1
55 35 90
55 36 41
55 37 100
55 38 2
55 39 96
55 40 44
55 41 64
55 42 45
55 43 2
55 44 99
55 45 49
55 46 27
55 47 4
55 48 62
55 49 74
55 50 47
55 51 46
55 52 47
55 53 56
55 54 42
56 0 97
56 1 77
56 2 56
56 3 44
56 4 94
56 5 13
56 6 56
56 7 26
56 8 84
56 9 7
56 10 37
56 11 1
56 12 30
56 13 75
56 14 93
56 15 71
56 16 40
56 17 80
56 18 16
56 19 63
56 20 50
56 21 1
56 22 23
56 23 83
56 24 69
56 25 96
56 26 16
56 27 73
56 28 54
56 29 3
56 30 87
56 31 70
56 32 88
56 33 35
56 34 25
56 35 87
56 36 76
56 37 58
56 38 75
56 39 61
56 40 70
56 41 62
56 42 57
56 43 58
56 44 5
56 45 59
56 46 47
56 47 8
56 48 1
56 49 78
56 50 85
56 51 23
56 52 46
56 53 29
56 54 51
56 55 22
57 0 3
57 1 65
57 2 17
57 3 51
57 4 65
57 5 58
57 6 98
57 7 93
57 8 75
57 9 75
57 10 27
57 11 92
57 12 82
57 13 12
57 14 38
57 15 39
57 16 92
57 17 22
57 18 36
57 19 95
57 20 46
57 21 60
57 22 85
57 23 47
57 24 22
57 25 9
57 26 49
57 27 27
57 28 54
57 29 76
57 30 48
57 31 36
57 32 7
57 33 62
57 34 36
57 35 51
57 36 57
57 37 57
57 38 7
57 39 11
57 40 60
57 41 100
57 42 77
57 43 13
57 44 9
57 45 13
57 46 4
57 47 51
57 48 22
57 49 5
57 50 46
57 51 91
57 52 99
57 53 82
57 54 70
57 55 70
57 56 39
58 0 41
58 1 57
58 2 42
58 3 27
58 4 9
58 5 66
58 6 26
58 7 99
58 8 63
58 9 53
58 10 21
58 11 71
58 12 50
58 13 69
58 14 100
58 15 86
58 16 74
58 17 61
58 18 94
58 19 92
58 20 44
58 21 67
58 22 19
58 23 96
58 24 76
58 25 77
58 26 23
58 27 21
58 28 10
58 29 95
58 30 51
58 31 73
58 32 73
58 33 29
58 34 46
58 35 1
58 36 10
58 37 86
58 38 44
58 39 2
58 40 61
58 41 67
58 42 27
58 43 3
58 44 38
58 45 64
58 46 42
58 47 21
58 48 67
58 49 27
58 50 5
58 51 91
58 52 69
58 53 42
58 54 36
58 55 98
58 56 91
58 57 29
59 0 6
59 1 71
59 2 44
59 3 75
59 4 94
59 5 16
59 6 80
59 7 40
59 8 64
59 9 87
59 10 15
59 11 9
59 12 35
59 13 36
59 14 6
59 15 77
59 16 96
59 17 94
59 18 11
59 19 89
59 20 74
59 21 57
59 22 95
59 23 78
59 24 87
59 25 86
59 26 80
59 27 62
59 28 7
59 29 55
59 30 35
59 31 3
59 32 37
59 33 97
59 34 49
59 35 37
59 36 77
59 37 27
59 38 50
59 39 16
59 40 12
59 41 56
59 42 54
59 43 44
59 44 75
59 45 8
59 46 53
59 47 82
59 48 51
59 49 22
59 50 89
59 51 48
59 52 24
59 53 92
59 54 55
59 55 57
59 56 89
59 57 65
59 58 33
60 0 62
60 1 90
60 2 27
60 3 63
60 4 92
60 5 31
60 6 27
60 7 87
60 8 10
60 9 89
60 10 19
60 11 30
60 12 19
60 13 35
60 14 34
60 15 93
60 16 1
60 17 13
60 18 3
60 19 95
60 20 67
60 21 60
60 22 91
60 23 64
60 24 45
60 25 51
60 26 26
60 27 74
60 28 46
60 29 13
60 30 15
60 31 90
60 32 73
60 33 35
60 34 97
60 35 41
60 36 69
60 37 62
60 38 63
60 39 63
60 40 18
60 41 72
60 42 51
60 43 60
60 44 44
60 45 48
60 46 94
60 47 77
60 48 82
60 49 11
60 50 74
60 51 7
60 52 93
60 53 67
60 54 23
60 55 39
60 56 69
60 57 92
60 58 50
60 59 45
61 0 48
61 1 50
61 2 15
61 3 60
61 4 15
61 5 26
61 6 62
61 7 89
61 8 82
61 9 8
61 10 70
61 11 64
61 12 67
61 13 62
61 14 18
61 15 19
61 16 4
61 17 80
61 18 41
61 19 65
61 20 68
61 21 84
61 22 34
61 23 85
61 24 89
61 25 41
61 26 46
61 27 68
61 28 92
61 29 93
61 30 36
61 31 66
61 32 84
61 33 24
61 34 22
61 35 40
61 36 81
61 37 21
61 38 22
61 39 17
61 40 41
61 41 88
61 42 65
61 43 98
61 44 39
61 45 30
61 46 43
61 47 62
61 48 23
61 49 9
61 50 8
61 51 75
61 52 14
61 53 43
61 54 46
61 55 90
61 56 44
61 57 12
61 58 89
61 59 100
61 60 52
62 0 58
62 1 31
62 2 86
62 3 80
62 4 29
62 5 66
62 6 53
62 7 35
62 8 93
62 9 75
62 10 69
62 11 9
62 12 4
62 13 10
62 14 37
62 15 80
62 16 22
62 17 67
62 18 65
62 19 27
62 20 7
62 21 43
62 22 22
62 23 39
62 24 35
62 25 11
62 26 85
62 27 96
62 28 11
62 29 69
62 30 16
62 31 52
62 32 85
62 33 41
62 34 40
62 35 60
62 36 74
62 37 37
62 38 93
62 39 96
62 40 71
62 41 1
62 42 63
62 43 95
62 44 79
62 45 99
62 46 57
62 47 92
62 48 99
62 49 38
62 50 60
62 51 35
62 52 80
62 53 4
62 54 63
62 55 13
62 56 80
62 57 64
62 58 77
62 59 21
62 60 17
62 61 84
63 0 71
63 1 43
63 2 9
63 3 30
63 4 94
63 5 33
63 6 22
63 7 80
63 8 62
63 9 34
63 10 79
63 11 59
63 12 30
63 13 42
63 14 1
63 15 54
63 16 78
63 17 25
63 18 78
63 19 3
63 20 79
63 21 46
63 22 7
63 23 43
63 24 30
63 25 52
63 26 17
63 27 60
63 28 57
63 29 27
63 30 88
63 31 100
63 32 35
63 33 17
63 34 41
63 35 2
63 36 82
63 37 88
63 38 29
63 39 81
63 40 12
63 41 57
63 42 80
63 43 74
63 44 57
63 45 19
63 46 63
63 47 12
63 48 5
63 49 64
63 50 75
63 51 1
63 52 95
63 53 35
63 54 81
63 55 3
63 56 80
63 57 5
63 58 40
63 59 67
63 60 44
63 61 41
63 62 9
64 0 47
64 1 34
64 2 2
64 3 8
64 4 100
64 5 50
64 6 83
64 7 85
64 8 61
64 9 84
64 10 5
64 11 11
64 12 28
64 13 27
64 14 13
64 15 2
64 16 16
64 17 69
64 18 22
64 19 41
64 20 48
64 21 61
64 22 40
64 23 51
64 24 5
64 25 26
64 26 47
64 27 43
64 28 54
64 29 19
64 30 6
64 31 30
64 32 3
64 33 89
64 34 45
64 35 98
64 36 89
64 37 94
64 38 35
64 39 57
64 40 64
64 41 53
64 42 36
64 43 30
64 44 53
64 45 58
64 46 15
64 47 41
64 48 5
64 49 67
64 50 31
64 51 6
64 52 32
64 53 52
64 54 54
64 55 61
64 56 41
64 57 86
64 58 69
64 59 56
64 60 85
64 61 71
64 62 62
64 63 8
